NAME : mEgtspf.pid20688.gtsp.157061436.tour
COMMENT : Length = 157061436
COMMENT : Found by LKH [Keld Helsgaun] Thu Mar 20 01:26:23 2025
TYPE : TOUR
DIMENSION : 90
TOUR_SECTION
1
43
44
45
46
72
73
74
71
26
23
24
25
90
87
88
89
9
53
54
51
52
18
15
16
17
3
28
29
30
27
32
33
34
31
2
84
85
86
83
55
56
57
58
7
22
19
20
21
75
76
77
78
4
40
41
42
39
10
8
5
81
82
79
80
6
59
60
61
62
37
38
35
36
13
14
11
12
69
70
67
68
50
47
48
49
65
66
63
64
-1
EOF
